Problem:    
Rows:       256
Columns:    89 (72 integer, 72 binary)
Non-zeros:  800
Status:     INTEGER OPTIMAL
Objective:  value = 172.4527 (MINimum)

   No.   Row name        Activity     Lower bound   Upper bound
------ ------------    ------------- ------------- -------------
     1 r.5                   172.453             0               
     2 r.6                  -956.911      -957.998               
     3 r.7                   1172.45             0               
     4 r.8                  -931.526       -976.51               
     5 r.9                   1172.45             0               
     6 r.10                 -955.192      -956.279               
     7 r.11                  172.453             0               
     8 r.12                  111.193      -975.389               
     9 r.13                  172.453             0               
    10 r.14                  111.193      -923.083               
    11 r.15                  1172.45             0               
    12 r.16                 -888.807      -957.281               
    13 r.17                  172.453             0               
    14 r.18                 -959.927      -961.014               
    15 r.19                  1172.45             0               
    16 r.20                 -976.165      -977.252               
    17 r.21                  172.453             0               
    18 r.22                  73.7067       -962.16               
    19 r.23                  1172.45             0               
    20 r.24                 -955.017      -978.852               
    21 r.25                  1172.45             0               
    22 r.26                 -998.913      -998.913               
    23 r.27                  172.453             0               
    24 r.28                    1.087      -998.894               
    25 r.29                  1172.45             0               
    26 r.30                 -827.547      -901.254               
    27 r.31                  172.453             0               
    28 r.32                  172.453      -938.884               
    29 r.33                  172.453             0               
    30 r.34                  172.453      -901.285               
    31 r.35                  1172.45             0               
    32 r.36                 -827.547       -938.74               
    33 r.37                        1             1             = 
    34 r.38                        1             1             = 
    35 r.39                        1             1             = 
    36 r.40                        1             1             = 
    37 r.41                        1             1             = 
    38 r.42                        1             1             = 
    39 r.43                        1             1             = 
    40 r.44                        1             1             = 
    41 r.45                     1001             2               
    42 r.46                    -1001         -1001               
    43 r.47                  3001.72      -956.279               
    44 r.48                     1001             2               
    45 r.49                    -1001         -1001               
    46 r.50                  2042.72      -975.389               
    47 r.51                     1000             2               
    48 r.52                    -1000         -1001               
    49 r.53                   3068.1      -923.083               
    50 r.54                        2             2               
    51 r.55                       -2         -1001               
    52 r.56                 -957.281      -957.281               
    53 r.57                     1000             2               
    54 r.58                    -1000         -1001               
    55 r.59                  1996.98      -961.014               
    56 r.60                        2             2               
    57 r.61                       -2         -1001               
    58 r.62                 -44.6385      -977.252               
    59 r.63                     1000             2               
    60 r.64                    -1000         -1001               
    61 r.65                  3030.62       -962.16               
    62 r.66                        2             2               
    63 r.67                       -2         -1001               
    64 r.68                 -23.4905      -978.852               
    65 r.69                 -957.998      -957.998               
    66 r.70                 -932.613       -976.51               
    67 r.71                 -957.998      -957.998               
    68 r.72                 -932.613       -976.51               
    69 r.73                  129.364      -901.254               
    70 r.74                  1129.36      -938.884               
    71 r.75                 -896.021      -901.254               
    72 r.76                  103.979      -938.884               
    73 r.77                     1000             2               
    74 r.78                    -1000         -1001               
    75 r.79                  3129.36      -901.285               
    76 r.80                        2             2               
    77 r.81                       -2         -1001               
    78 r.82                 -896.021       -938.74               
    79 r.83                     1001             2               
    80 r.84                    -1001         -1001               
    81 r.85                  998.281       42.0016               
    82 r.86                     1001             2               
    83 r.87                    -1001         -1001               
    84 r.88                  1957.28       23.4905               
    85 r.89                     1001             2               
    86 r.90                    -1001         -1001               
    87 r.91                  2066.39      -923.083               
    88 r.92                     1001             2               
    89 r.93                    -1001         -1001               
    90 r.94                     2000      -957.281               
    91 r.95                     1001             2               
    92 r.96                    -1001         -1001               
    93 r.97                  995.266      -961.014               
    94 r.98                     1001             2               
    95 r.99                    -1001         -1001               
    96 r.100                 1912.64      -977.252               
    97 r.101                    1001             2               
    98 r.102                   -1001         -1001               
    99 r.103                  2028.9       -962.16               
   100 r.104                    1001             2               
   101 r.105                   -1001         -1001               
   102 r.106                 1933.79      -978.852               
   103 r.107                -956.279      -956.279               
   104 r.108                 110.106      -975.389               
   105 r.109                -956.279      -956.279               
   106 r.110                 110.106      -975.389               
   107 r.111                       2             2               
   108 r.112                      -2         -1001               
   109 r.113                -872.355      -901.254               
   110 r.114                    1000             2               
   111 r.115                   -1000         -1001               
   112 r.116                 2061.26      -938.884               
   113 r.117                 127.645      -901.285               
   114 r.118                -872.355       -938.74               
   115 r.119                   61.26      -901.285               
   116 r.120                 -938.74       -938.74               
   117 r.121                    1000             2               
   118 r.122                   -1000         -1001               
   119 r.123                 931.896       42.0016               
   120 r.124                       2             2               
   121 r.125                      -2         -1001               
   122 r.126                 957.281       23.4905               
   123 r.127                    1001             2               
   124 r.128                   -1001         -1001               
   125 r.129                 1933.61       43.7206               
   126 r.130                    1001             2               
   127 r.131                   -1001         -1001               
   128 r.132                    2000       24.6114               
   129 r.133                 1071.12      -923.083               
   130 r.134                 71.1195      -957.281               
   131 r.135                 87.3573      -923.083               
   132 r.136                -912.643      -957.281               
   133 r.137                    1000             2               
   134 r.138                   -1000         -1001               
   135 r.139                 1962.51       -962.16               
   136 r.140                       2             2               
   137 r.141                      -2         -1001               
   138 r.142                -66.2093      -978.852               
   139 r.143                 110.106      -923.083               
   140 r.144                -889.894      -957.281               
   141 r.145                 110.106      -923.083               
   142 r.146                -889.894      -957.281               
   143 r.147                    1001             2               
   144 r.148                   -1001         -1001               
   145 r.149                 2061.26      -901.254               
   146 r.150                    1001             2               
   147 r.151                   -1001         -1001               
   148 r.152                 2061.26      -938.884               
   149 r.153                   61.26      -901.285               
   150 r.154                 -938.74       -938.74               
   151 r.155                   61.26      -901.285               
   152 r.156                 -938.74       -938.74               
   153 r.157                    1000             2               
   154 r.158                   -1000         -1001               
   155 r.159                 2003.02       42.0016               
   156 r.160                       2             2               
   157 r.161                      -2         -1001               
   158 r.162                 44.6385       23.4905               
   159 r.163                    1001             2               
   160 r.164                   -1001         -1001               
   161 r.165                 3004.73       43.7206               
   162 r.166                    1001             2               
   163 r.167                   -1001         -1001               
   164 r.168                 2087.36       24.6114               
   165 r.169                    1000             2               
   166 r.170                   -1000         -1001               
   167 r.171                 3033.63       -962.16               
   168 r.172                       2             2               
   169 r.173                      -2         -1001               
   170 r.174                -978.852      -978.852               
   171 r.175                -961.014      -961.014               
   172 r.176                -977.252      -977.252               
   173 r.177                -961.014      -961.014               
   174 r.178                -977.252      -977.252               
   175 r.179                    1001             2               
   176 r.180                   -1001         -1001               
   177 r.181                 3132.38      -901.254               
   178 r.182                    1001             2               
   179 r.183                   -1001         -1001               
   180 r.184                 2148.62      -938.884               
   181 r.185                 1132.38      -901.285               
   182 r.186                 132.379       -938.74               
   183 r.187                 148.617      -901.285               
   184 r.188                -851.383       -938.74               
   185 r.189                    1000             2               
   186 r.190                   -1000         -1001               
   187 r.191                 969.382       42.0016               
   188 r.192                       2             2               
   189 r.193                      -2         -1001               
   190 r.194                 23.4905       23.4905               
   191 r.195                    1001             2               
   192 r.196                   -1001         -1001               
   193 r.197                  1971.1       43.7206               
   194 r.198                    1001             2               
   195 r.199                   -1001         -1001               
   196 r.200                 2066.21       24.6114               
   197 r.201                    1000             2               
   198 r.202                   -1000         -1001               
   199 r.203                 2037.49       76.9168               
   200 r.204                       2             2               
   201 r.205                      -2         -1001               
   202 r.206                 66.2093       42.7188               
   203 r.207                    1000             2               
   204 r.208                   -1000         -1001               
   205 r.209                 966.367       38.9862               
   206 r.210                       2             2               
   207 r.211                      -2         -1001               
   208 r.212                 978.852       22.7484               
   209 r.213                 72.6197       -962.16               
   210 r.214                -956.104      -978.852               
   211 r.215                 72.6197       -962.16               
   212 r.216                -956.104      -978.852               
   213 r.217                -901.254      -901.254               
   214 r.218                  98.746      -938.884               
   215 r.219                -872.531      -901.254               
   216 r.220                 127.469      -938.884               
   217 r.221                  98.746      -901.285               
   218 r.222                -901.254       -938.74               
   219 r.223                 127.469      -901.285               
   220 r.224                -872.531       -938.74               
   221 r.225                       2             2               
   222 r.226                      -2         -1001               
   223 r.227                 872.355       43.7206               
   224 r.228                    1000             2               
   225 r.229                   -1000         -1001               
   226 r.230                 1938.74       24.6114               
   227 r.231                    1001             2               
   228 r.232                   -1001         -1001               
   229 r.233                 1938.74       76.9168               
   230 r.234                    1001             2               
   231 r.235                   -1001         -1001               
   232 r.236                 1938.74       42.7188               
   233 r.237                    1001             2               
   234 r.238                   -1001         -1001               
   235 r.239                 867.621       38.9862               
   236 r.240                    1001             2               
   237 r.241                   -1001         -1001               
   238 r.242                 1851.38       22.7484               
   239 r.243                    1001             2               
   240 r.244                   -1001         -1001               
   241 r.245                    2000      -901.285               
   242 r.246                    1001             2               
   243 r.247                   -1001         -1001               
   244 r.248                    2000       -938.74               
   245 r.249                    1000             2               
   246 r.250                   -1000         -1001               
   247 r.251                 870.636       42.0016               
   248 r.252                       2             2               
   249 r.253                      -2         -1001               
   250 r.254                 896.021       23.4905               
   251 r.255                    1001             2               
   252 r.256                   -1001         -1001               
   253 r.257                    2000        98.746               
   254 r.258                    1001             2               
   255 r.259                   -1001         -1001               
   256 r.260                    2000       61.1162               

   No. Column name       Activity     Lower bound   Upper bound
------ ------------    ------------- ------------- -------------
     1 tt                    172.453             0               
     2 s_1_1        *              0             0             1 
     3 t_1_1                 1129.36             0               
     4 s_1_7        *              1             0             1 
     5 s_2_1        *              1             0             1 
     6 t_2_1                 103.979             0               
     7 s_2_7        *              0             0             1 
     8 s_1_2        *              1             0             1 
     9 t_1_2                 127.645             0               
    10 s_1_8        *              0             0             1 
    11 s_2_2        *              0             0             1 
    12 t_2_2                   61.26             0               
    13 s_2_8        *              1             0             1 
    14 s_1_3        *              0             0             1 
    15 t_1_3                   61.26             0               
    16 s_2_3        *              1             0             1 
    17 t_2_3                   61.26             0               
    18 s_1_4        *              0             0             1 
    19 t_1_4                 1132.38             0               
    20 s_2_4        *              1             0             1 
    21 t_2_4                 148.617             0               
    22 s_1_5        *              0             0             1 
    23 t_1_5                  98.746             0               
    24 s_2_5        *              1             0             1 
    25 t_2_5                 127.469             0               
    26 s_1_6        *              1             0             1 
    27 t_1_6                 171.366             0               
    28 s_2_6        *              0             0             1 
    29 t_2_6                 171.366             0               
    30 t_1_7                       0             0               
    31 t_2_7                       0             0               
    32 t_1_8                       0             0               
    33 t_2_8                       0             0               
    34 r_1_1_2      *              1             0             1 
    35 u_1_1_2      *              0             0             1 
    36 r_2_1_2      *              1             0             1 
    37 u_2_1_2      *              0             0             1 
    38 r_1_1_3      *              1             0             1 
    39 u_1_1_3      *              0             0             1 
    40 r_2_1_3      *              0             0             1 
    41 u_2_1_3      *              1             0             1 
    42 r_1_1_4      *              1             0             1 
    43 u_1_1_4      *              0             0             1 
    44 r_2_1_4      *              0             0             1 
    45 u_2_1_4      *              0             0             1 
    46 r_1_1_5      *              1             0             1 
    47 u_1_1_5      *              0             0             1 
    48 r_2_1_5      *              0             0             1 
    49 u_2_1_5      *              0             0             1 
    50 r_1_1_8      *              1             0             1 
    51 u_1_1_8      *              0             0             1 
    52 r_2_1_8      *              0             0             1 
    53 u_2_1_8      *              1             0             1 
    54 r_1_2_3      *              1             0             1 
    55 u_1_2_3      *              0             0             1 
    56 r_2_2_3      *              1             0             1 
    57 u_2_2_3      *              0             0             1 
    58 r_1_2_4      *              1             0             1 
    59 u_1_2_4      *              0             0             1 
    60 r_2_2_4      *              1             0             1 
    61 u_2_2_4      *              0             0             1 
    62 r_1_2_5      *              1             0             1 
    63 u_1_2_5      *              0             0             1 
    64 r_2_2_5      *              1             0             1 
    65 u_2_2_5      *              0             0             1 
    66 r_1_2_7      *              0             0             1 
    67 u_1_2_7      *              1             0             1 
    68 r_2_2_7      *              1             0             1 
    69 u_2_2_7      *              0             0             1 
    70 r_1_3_5      *              1             0             1 
    71 u_1_3_5      *              0             0             1 
    72 r_2_3_5      *              0             0             1 
    73 u_2_3_5      *              0             0             1 
    74 r_1_3_7      *              1             0             1 
    75 u_1_3_7      *              0             0             1 
    76 r_2_3_7      *              1             0             1 
    77 u_2_3_7      *              0             0             1 
    78 r_1_4_5      *              1             0             1 
    79 u_1_4_5      *              0             0             1 
    80 r_2_4_5      *              0             0             1 
    81 u_2_4_5      *              1             0             1 
    82 r_1_4_7      *              1             0             1 
    83 u_1_4_7      *              0             0             1 
    84 r_2_4_7      *              1             0             1 
    85 u_2_4_7      *              0             0             1 
    86 r_1_7_8      *              1             0             1 
    87 u_1_7_8      *              0             0             1 
    88 r_2_7_8      *              1             0             1 
    89 u_2_7_8      *              0             0             1 

Integer feasibility conditions:

KKT.PE: max.abs.err = 4.55e-13 on row 84
        max.rel.err = 1.10e-16 on row 84
        High quality

KKT.PB: max.abs.err = 1.14e-13 on row 105
        max.rel.err = 1.45e-16 on row 190
        High quality

End of output
